words_easy_train/words_201_UNSAT.qaiger
aag 60 16 0 1 44
26
6
22
24
28
4
10
18
8
14
12
16
30
32
2
20
121
34 23 21
36 34 25
38 36 27
40 37 26
42 41 39
44 42 14
46 22 20
48 47 35
50 48 10
52 35 24
54 53 37
56 54 12
58 49 11
60 21 9
62 20 8
64 19 6
66 65 63
68 67 61
70 68 59
72 71 57
74 72 51
76 43 15
78 55 13
80 79 77
82 80 75
84 83 45
86 39 28
88 38 29
90 89 17
92 90 87
94 92 31
96 95 85
98 88 31
100 86 30
102 101 99
104 103 16
106 105 84
108 107 97
110 99 32
112 98 33
114 113 111
116 115 109
118 114 108
120 119 117
i0 1 x2[4]
i1 2 y2[2]
i2 1 x2[2]
i3 1 x2[3]
i4 1 x2[5]
i5 2 y2[1]
i6 2 y2[4]
i7 1 x2[0]
i8 2 y2[3]
i9 2 y2[6]
i10 2 y2[5]
i11 2 y2[7]
i12 1 x2[6]
i13 1 x2[7]
i14 2 y2[0]
i15 1 x2[1]
o0 bv[0]
c
simplified
  >=
    >> 2
      2 y2
    subtract
      1 x2
      1
