words_easy_train/words_201_UNSAT.qaiger.qdimacs
p cnf 60 133
a 9 10 11 12 13 14 15 16 0
e 1 2 3 4 5 6 7 8 17 18 19 20 21 22 23 24 25 26 27 28 29 30 31 32 33 34 35 36 37 38 39 40 41 42 43 44 45 46 47 48 49 50 51 52 53 54 55 56 57 58 59 60 0
11 10 17 0
-11 -17 0
-10 -17 0
-17 12 18 0
17 -18 0
-12 -18 0
-18 13 19 0
18 -19 0
-13 -19 0
18 -13 20 0
-18 -20 0
13 -20 0
20 19 21 0
-20 -21 0
-19 -21 0
-21 -7 22 0
21 -22 0
7 -22 0
-11 -10 23 0
11 -23 0
10 -23 0
23 17 24 0
-23 -24 0
-17 -24 0
-24 -5 25 0
24 -25 0
5 -25 0
17 -12 26 0
-17 -26 0
12 -26 0
26 18 27 0
-26 -27 0
-18 -27 0
-27 -6 28 0
27 -28 0
6 -28 0
24 5 29 0
-24 -29 0
-5 -29 0
10 4 30 0
-10 -30 0
-4 -30 0
-10 -4 31 0
10 -31 0
4 -31 0
9 -3 32 0
-9 -32 0
3 -32 0
32 31 33 0
-32 -33 0
-31 -33 0
33 30 34 0
-33 -34 0
-30 -34 0
-34 29 35 0
34 -35 0
-29 -35 0
35 28 36 0
-35 -36 0
-28 -36 0
-36 25 37 0
36 -37 0
-25 -37 0
21 7 38 0
-21 -38 0
-7 -38 0
27 6 39 0
-27 -39 0
-6 -39 0
39 38 40 0
-39 -40 0
-38 -40 0
-40 37 41 0
40 -41 0
-37 -41 0
41 22 42 0
-41 -42 0
-22 -42 0
19 -14 43 0
-19 -43 0
14 -43 0
-19 14 44 0
19 -44 0
-14 -44 0
44 8 45 0
-44 -45 0
-8 -45 0
-45 43 46 0
45 -46 0
-43 -46 0
-46 15 47 0
46 -47 0
-15 -47 0
47 42 48 0
-47 -48 0
-42 -48 0
-44 15 49 0
44 -49 0
-15 -49 0
-43 -15 50 0
43 -50 0
15 -50 0
50 49 51 0
-50 -51 0
-49 -51 0
51 -8 52 0
-51 -52 0
8 -52 0
52 -42 53 0
-52 -53 0
42 -53 0
53 48 54 0
-53 -54 0
-48 -54 0
49 -16 55 0
-49 -55 0
16 -55 0
-49 16 56 0
49 -56 0
-16 -56 0
56 55 57 0
-56 -57 0
-55 -57 0
57 54 58 0
-57 -58 0
-54 -58 0
-57 -54 59 0
57 -59 0
54 -59 0
59 58 60 0
-59 -60 0
-58 -60 0
-60 0
